
Log started (V12.8.0.0) Thu Aug 30 10:50:17 2018

New value for time limit in seconds: 500
CPXPARAM_TimeLimit                               500
CPXPARAM_Emphasis_Numerical                      1
CPXPARAM_Parallel                                -1
CPXPARAM_Benders_Strategy                        3
CPXPARAM_MIP_Tolerances_Integrality              9.9999999999999995e-08
CPXPARAM_MIP_Pool_AbsGap                         0
Tried aggregator 3 times.
MIP Presolve eliminated 8445 rows and 3873 columns.
Aggregator did 1114 substitutions.
Reduced MIP has 2317 rows, 2481 columns, and 9093 nonzeros.
Reduced MIP has 22 binaries, 0 generals, 0 SOSs, and 0 indicators.
Presolve time = 0.01 sec. (13.25 ticks)
Found incumbent of value -5.286667 after 0.03 sec. (23.27 ticks)
Tried aggregator 1 time.
Reduced MIP has 2317 rows, 2481 columns, and 9093 nonzeros.
Reduced MIP has 22 binaries, 0 generals, 0 SOSs, and 0 indicators.
Presolve time = 0.00 sec. (2.44 ticks)

        Nodes                                         Cuts/
   Node  Left     Objective  IInf  Best Integer    Best Bound    ItCnt     Gap

      0     0        0.0000                        Benders: 7        0         
      0     0        0.0000                        Benders: 3        1         
      0     0        0.0000                        Benders: 1        2         
      0     0        0.0000                        Benders: 1        3         
      0     0        0.0000                            0.0000        4         
Tried aggregator 1 time.
MIP Presolve modified 90 coefficients.
Reduced MIP has 13 rows, 32 columns, and 129 nonzeros.
Reduced MIP has 22 binaries, 0 generals, 0 SOSs, and 0 indicators.
Presolve time = 0.00 sec. (0.03 ticks)
Probing time = 0.00 sec. (0.01 ticks)
Tried aggregator 1 time.
Reduced MIP has 13 rows, 32 columns, and 129 nonzeros.
Reduced MIP has 22 binaries, 0 generals, 0 SOSs, and 0 indicators.
Presolve time = 0.00 sec. (0.03 ticks)
Probing time = 0.00 sec. (0.01 ticks)
MIP emphasis: balance optimality and feasibility.
MIP search method: dynamic search.
Parallel mode: opportunistic, using up to 8 threads.
Root relaxation solution time = 0.00 sec. (0.03 ticks)
*     0+    0                           -5.0289       -0.0000           100.00%
      0     0        0.0000     3       -5.0289       -0.0000       18  100.00%
*     0+    0                           -4.9123       -0.0000           100.00%
*     0+    0                           -4.8253       -0.0000           100.00%

Repeating presolve.
Tried aggregator 1 time.
Reduced MIP has 13 rows, 32 columns, and 129 nonzeros.
Reduced MIP has 22 binaries, 0 generals, 0 SOSs, and 0 indicators.
Presolve time = 0.00 sec. (0.03 ticks)
Probing time = 0.00 sec. (0.01 ticks)
Tried aggregator 1 time.
Reduced MIP has 13 rows, 32 columns, and 129 nonzeros.
Reduced MIP has 22 binaries, 0 generals, 0 SOSs, and 0 indicators.
Presolve time = 0.00 sec. (0.03 ticks)
Represolve time = 0.00 sec. (0.62 ticks)
Probing time = 0.00 sec. (0.01 ticks)
MIP emphasis: balance optimality and feasibility.
MIP search method: dynamic search.
Parallel mode: opportunistic, using up to 8 threads.
Root relaxation solution time = 0.00 sec. (0.11 ticks)
*     0+    0                           -4.8253       -0.0000           100.00%
      0     0        0.0000     3       -4.8253       -0.0000       36  100.00%
      0     0        0.0000     2       -4.8253   ZeroHalf: 1       39  100.00%
*     0+    0                           -4.4196       -0.0000           100.00%
      0     2        0.0000     2       -4.4196     Cuts: 208       39  100.00%
Elapsed time = 0.69 sec. (530.39 ticks, tree = 0.01 MB, solutions = 1)
*    64    42      integral     0       -3.2372       -0.0000      252  100.00%
*    70    52      integral     0       -3.2372       -0.0000      326  100.00%
    168    52       -3.0000     2       -3.2372       -0.0000      361  100.00%
    587   104        cutoff             -3.2372       -0.9410     2927   70.93%
*   683+   61                           -3.2372       -1.5563            51.93%

Benders cuts applied:  1659
Zero-half cuts applied:  1

Root node processing (before b&c):
  Real time             =    0.57 sec. (515.14 ticks)
Parallel b&c, 8 threads:
  Real time             =    1.02 sec. (689.62 ticks)
  Sync time (average)   =    0.08 sec.
  Wait time (average)   =    0.00 sec.
                          ------------
Total (root+branch&cut) =    1.59 sec. (1204.76 ticks)

Solution pool: 1 solution saved.

MIP - Integer optimal solution:  Objective = -3.2372488866e+00
Solution time =    1.59 sec.  Iterations = 4120  Nodes = 865 (1)
Deterministic time = 1205.34 ticks  (757.92 ticks/sec)


Solution pool written to file 'wgcp_a8_b0_n1.sol'.
Current MIP best bound = -3.2372488866e+00 (gap = -0, 0.00%)
